/*********************************************
 * OPL 12.6.0.0 Data
 * Author: Adrian Rodriguez Bazaga, Pau Rodriguez Esmerats
 * Creation Date: 21/11/2017 at 23:07:29
 *********************************************/

nNurses=177;
maxConsec=2;
maxPresence=7;
maxHours=5;
minHours=1;
demand= [41 38 59 57 38 59 57 40 37 20 2 8 4 11 5 9 4 7 3 3 28 57 30 50  ];
